39935 38706 
39325 39163 
39683 38864 
39073 39321 
38500 39646 
38435 39687 
38461 39668 
37627 40045 
38310 39756 
38122 39844 
38596 39642 
38057 39885 
36871 40231 
36809 40257 
38820 39504 
36190 40438 
36744 40298 
38177 39798 
37429 40202 
36052 40485 
36279 40376 
37069 40225 
36655 40360 
36824 40251 
37817 40011 
